50
100 100
1 68 166
2 67 837
3 67 558
4 66 289
5 66 681
6 65 614
7 65 30
8 64 68
9 63 49
10 61 314
11 60 969
12 59 783
13 59 86
14 59 623
15 56 188
16 55 303
17 54 432
18 53 931
19 52 826
20 52 572
21 51 8
22 51 245
23 51 949
24 51 938
25 50 324
26 49 611
27 49 417
28 47 466
29 47 756
30 44 95
31 43 114
32 42 776
33 42 455
34 41 623
35 40 435
36 38 261
37 36 713
38 35 369
39 34 979
40 33 439
41 33 26
42 32 446
43 31 476
44 30 306
45 27 831
46 25 402
47 24 52
48 24 192
49 23 448
50 22 864
